n = 23;
budget = 200000;
groceries = [|189,207,27,109,1399|110,160,10,150,3552|252,315,18,125,2660|99,270,234,188,3077|45,99,144,157,805|200,80,216,108,1937|135,144,72,99,3796|35,168,196,107,1402|9,153,9,79,3175|8,512,8,109,3851|35,126,210,112,3694|100,190,90,120,819|25,80,110,200,1763|66,276,60,126,1647|50,105,275,124,3592|65,20,35,169,1369|60,20,345,179,1828|28,28,539,163,3826|8,88,32,149,3842|30,60,240,116,2754|126,108,324,194,1032|60,246,114,133,2389|126,126,234,57,2798|];
requirements = [|912,1104|4800,4800|1368,1488|];
offset = [|91,220|2400,3120|342,520|];
variety = 14;